[runlim] version:		1.10
[runlim] time limit:		311040000 seconds
[runlim] real time limit:	900 seconds
[runlim] space limit:		6000 MB
[runlim] argv[0]:		python3
[runlim] argv[1]:		cp.py
[runlim] argv[2]:		graph10
[runlim] start:			Sun Jan 18 12:27:24 2026
[runlim] main pid:		394
[runlim] sample:		9.9 time, 10.3 real, 585.7 MB
[runlim] sample:		19.8 time, 20.3 real, 1327.0 MB
[runlim] sample:		29.7 time, 29.8 real, 1584.2 MB
[runlim] sample:		39.6 time, 39.8 real, 3610.4 MB
[runlim] sample:		49.5 time, 49.8 real, 5615.6 MB
Building CP model...
Build time: 14.79s
Solving CP Optimizer...
 ! --------------------------------------------------- CP Optimizer 22.1.1.0 --
 ! Minimization problem - 27024 variables, 1840053 constraints
 ! Presolve      : 1840735 extractables eliminated
 ! LogVerbosity         = Terse
 ! Initial process time : 19.40s (19.33s extraction + 0.07s propagation)
 !  . Log search space  : 27024.0 (before), 27024.0 (after)
 !  . Memory usage      : 238.2 MB (before), 238.2 MB (after)
 ! Using parallel search with 4 workers.
 ! ----------------------------------------------------------------------------
 !          Best Branches  Non-fixed    W       Branch decision
                        0      27024                 -
 + New bound is 0
[runlim] end:			Sun Jan 18 12:28:19 2026
[runlim] status:		out of memory
[runlim] result:		3
[runlim] children:		409
[runlim] real:			55.66 seconds
[runlim] time:			59.86 seconds
[runlim] space:			6078.8 MB
[runlim] samples:		558
